c Result of efficient AIG-to-CNF conversion using package CNF
p cnf 373 1291
2 -3 -74 0
2 -3 4 -52 0
-2 3 0
-2 -4 74 0
-2 52 74 0
3 -309 -310 -311 -312 0
-3 312 0
-3 309 0
-3 311 0
-3 310 0
4 336 -28 -42 0
4 -336 -5 -28 0
-4 28 0
-4 -336 5 0
-4 336 42 0
5 -337 -6 0
5 337 -17 0
-5 337 17 0
-5 -337 6 0
6 -338 -7 0
6 338 -12 0
-6 338 12 0
-6 -338 7 0
7 -339 -8 0
7 339 -10 0
-7 339 10 0
-7 -339 8 0
8 -340 -9 0
8 -329 340 -361 0
-8 340 361 0
-8 -340 9 0
-8 329 340 0
9 -330 -362 0
-9 330 0
-9 362 0
10 340 -11 0
10 -328 -340 -360 0
-10 340 11 0
-10 -340 360 0
-10 328 -340 0
11 -327 -359 0
-11 327 0
-11 359 0
12 -339 -13 0
12 339 -15 0
-12 339 15 0
-12 -339 13 0
13 -340 -14 0
13 -325 340 -357 0
-13 340 357 0
-13 -340 14 0
-13 325 340 0
14 -326 -358 0
-14 326 0
-14 358 0
15 -340 -16 0
15 -323 340 -355 0
-15 340 355 0
-15 -340 16 0
-15 323 340 0
16 -324 -356 0
-16 324 0
-16 356 0
17 -338 -18 0
17 338 -23 0
-17 338 23 0
-17 -338 18 0
18 -339 -19 0
18 339 -21 0
-18 339 21 0
-18 -339 19 0
19 -340 -20 0
19 -321 340 -353 0
-19 340 353 0
-19 -340 20 0
-19 321 340 0
20 -322 -354 0
-20 322 0
-20 354 0
21 340 -22 0
21 -320 -340 -352 0
-21 340 22 0
-21 -340 352 0
-21 320 -340 0
22 -319 -351 0
-22 319 0
-22 351 0
23 -339 -24 0
23 339 -26 0
-23 339 26 0
-23 -339 24 0
24 -340 -25 0
24 -317 340 -349 0
-24 340 349 0
-24 -340 25 0
-24 317 340 0
25 -318 -350 0
-25 318 0
-25 350 0
26 -340 -27 0
26 -315 340 -347 0
-26 340 347 0
-26 -340 27 0
-26 315 340 0
27 -316 -348 0
-27 316 0
-27 348 0
28 -29 -32 -40 0
-28 29 0
-28 32 0
-28 40 0
29 -30 -31 0
-29 30 0
-29 31 0
30 -323 -324 0
-30 323 0
-30 324 0
31 -313 -314 -315 0
-31 313 0
-31 314 0
-31 315 0
32 -33 -34 0
-32 33 0
-32 34 0
33 -321 -322 0
-33 321 0
-33 322 0
34 -35 -38 0
-34 35 0
-34 38 0
35 -36 -37 0
-35 36 0
-35 37 0
36 -329 -330 0
-36 329 0
-36 330 0
37 -331 -332 -333 -334 0
-37 334 0
-37 331 0
-37 333 0
-37 332 0
38 -335 -39 0
-38 335 0
-38 39 0
39 -325 -326 -327 -328 0
-39 328 0
-39 325 0
-39 327 0
-39 326 0
40 -316 -317 -41 0
-40 316 0
-40 317 0
-40 41 0
41 -318 -319 -320 0
-41 318 0
-41 319 0
-41 320 0
42 -337 -43 0
-42 337 0
-42 43 0
43 -338 -44 0
43 338 -49 0
-43 338 49 0
-43 -338 44 0
44 -339 -45 0
44 339 -47 0
-44 339 47 0
-44 -339 45 0
45 -340 -46 0
45 -313 340 -345 0
-45 340 345 0
-45 -340 46 0
-45 313 340 0
46 -314 -346 0
-46 314 0
-46 346 0
47 -340 -48 0
47 -311 340 -343 0
-47 340 343 0
-47 -340 48 0
-47 311 340 0
48 -312 -344 0
-48 312 0
-48 344 0
49 -339 -50 0
-49 339 0
-49 50 0
50 -340 -51 0
50 -309 340 -341 0
-50 340 341 0
-50 -340 51 0
-50 309 340 0
51 -310 -342 0
-51 310 0
-51 342 0
52 336 -28 -68 0
52 -336 -28 -53 0
-52 28 0
-52 -336 53 0
-52 336 68 0
-53 -337 61 0
-53 337 54 0
53 337 -54 0
53 -337 -61 0
54 -338 -55 0
54 338 -58 0
-54 338 58 0
-54 -338 55 0
55 -339 -56 0
55 339 -57 0
-55 339 57 0
-55 -339 56 0
56 340 -353 0
56 -340 -354 0
-56 -340 354 0
-56 340 353 0
57 340 -351 0
57 -340 -352 0
-57 -340 352 0
-57 340 351 0
58 -339 -59 0
58 339 -60 0
-58 339 60 0
-58 -339 59 0
59 340 -349 0
59 -340 -350 0
-59 -340 350 0
-59 340 349 0
60 340 -347 0
60 -340 -348 0
-60 -340 348 0
-60 340 347 0
61 -338 -62 0
61 338 -65 0
-61 338 65 0
-61 -338 62 0
62 -339 -63 0
62 339 -64 0
-62 339 64 0
-62 -339 63 0
63 340 -361 0
63 -340 -362 0
-63 -340 362 0
-63 340 361 0
64 340 -359 0
64 -340 -360 0
-64 -340 360 0
-64 340 359 0
65 -339 -66 0
65 339 -67 0
-65 339 67 0
-65 -339 66 0
66 340 -357 0
66 -340 -358 0
-66 -340 358 0
-66 340 357 0
67 340 -355 0
67 -340 -356 0
-67 -340 356 0
-67 340 355 0
68 -337 -69 0
-68 337 0
-68 69 0
69 -338 -70 0
69 338 -73 0
-69 338 73 0
-69 -338 70 0
70 -339 -71 0
70 339 -72 0
-70 339 72 0
-70 -339 71 0
71 340 -345 0
71 -340 -346 0
-71 -340 346 0
-71 340 345 0
72 340 -343 0
72 -340 -344 0
-72 -340 344 0
-72 340 343 0
73 -339 -340 -342 0
73 -339 340 -341 0
-73 339 0
-73 -340 342 0
-73 340 341 0
-74 28 130 0
-74 -75 130 0
-74 107 130 0
74 -130 0
74 -28 75 -107 0
75 -320 -32 -76 -77 0
-75 77 0
-75 320 0
-75 76 0
-75 32 0
76 -316 -317 -318 -319 0
-76 319 0
-76 316 0
-76 318 0
-76 317 0
77 336 -29 -97 0
77 -336 -29 -78 0
-77 29 0
-77 -336 78 0
-77 336 97 0
-78 -337 88 0
-78 337 79 0
78 337 -79 0
78 -337 -88 0
79 -338 -80 0
79 338 -84 0
-79 338 84 0
-79 -338 80 0
80 -339 -81 0
80 339 -82 0
-80 339 82 0
-80 -339 81 0
81 340 -20 0
81 -323 -340 -355 0
-81 340 20 0
-81 -340 355 0
-81 323 -340 0
82 -340 -83 0
82 -320 340 -352 0
-82 340 352 0
-82 -340 83 0
-82 320 340 0
83 -321 -353 0
-83 321 0
-83 353 0
84 -339 -85 0
84 339 -86 0
-84 339 86 0
-84 -339 85 0
85 -340 -22 0
85 -318 340 -350 0
-85 340 350 0
-85 -340 22 0
-85 318 340 0
86 -340 -87 0
86 -316 340 -348 0
-86 340 348 0
-86 -340 87 0
-86 316 340 0
87 -317 -349 0
-87 317 0
-87 349 0
88 -338 -89 0
88 338 -93 0
-88 338 93 0
-88 -338 89 0
89 -339 -90 0
89 339 -91 0
-89 339 91 0
-89 -339 90 0
90 340 -9 0
90 -331 -340 -363 0
-90 340 9 0
-90 -340 363 0
-90 331 -340 0
91 -340 -92 0
91 -328 340 -360 0
-91 340 360 0
-91 -340 92 0
-91 328 340 0
92 -329 -361 0
-92 329 0
-92 361 0
93 -339 -94 0
93 339 -95 0
-93 339 95 0
-93 -339 94 0
94 -340 -11 0
94 -326 340 -358 0
-94 340 358 0
-94 -340 11 0
-94 326 340 0
95 -340 -96 0
95 -324 340 -356 0
-95 340 356 0
-95 -340 96 0
-95 324 340 0
96 -325 -357 0
-96 325 0
-96 357 0
97 -337 -98 0
-97 337 0
-97 98 0
98 -338 -99 0
98 338 -103 0
-98 338 103 0
-98 -338 99 0
99 -339 -100 0
99 339 -101 0
-99 339 101 0
-99 -339 100 0
100 340 -46 0
100 -315 -340 -347 0
-100 340 46 0
-100 -340 347 0
-100 315 -340 0
101 -340 -102 0
101 -312 340 -344 0
-101 340 344 0
-101 -340 102 0
-101 312 340 0
102 -313 -345 0
-102 313 0
-102 345 0
103 -339 -104 0
103 339 -106 0
-103 339 106 0
-103 -339 104 0
104 -340 -105 0
104 -310 340 -342 0
-104 340 342 0
-104 -340 105 0
-104 310 340 0
105 -311 -343 0
-105 311 0
-105 343 0
106 -309 -340 -341 0
-106 309 0
-106 340 0
-106 341 0
-107 -336 108 0
-107 336 123 0
107 -336 -108 0
107 336 -123 0
-108 -337 116 0
-108 337 109 0
108 337 -109 0
108 -337 -116 0
109 -338 -110 0
109 338 -113 0
-109 338 113 0
-109 -338 110 0
110 -339 -111 0
110 339 -112 0
-110 339 112 0
-110 -339 111 0
111 340 -354 0
111 -340 -355 0
-111 -340 355 0
-111 340 354 0
112 340 -352 0
112 -340 -353 0
-112 -340 353 0
-112 340 352 0
113 -339 -114 0
113 339 -115 0
-113 339 115 0
-113 -339 114 0
114 340 -350 0
114 -340 -351 0
-114 -340 351 0
-114 340 350 0
115 340 -348 0
115 -340 -349 0
-115 -340 349 0
-115 340 348 0
116 -338 -117 0
116 338 -120 0
-116 338 120 0
-116 -338 117 0
117 -339 -118 0
117 339 -119 0
-117 339 119 0
-117 -339 118 0
118 340 -362 0
118 -340 -363 0
-118 -340 363 0
-118 340 362 0
119 340 -360 0
119 -340 -361 0
-119 -340 361 0
-119 340 360 0
120 -339 -121 0
120 339 -122 0
-120 339 122 0
-120 -339 121 0
121 340 -358 0
121 -340 -359 0
-121 -340 359 0
-121 340 358 0
122 340 -356 0
122 -340 -357 0
-122 -340 357 0
-122 340 356 0
123 -337 -124 0
-123 337 0
-123 124 0
124 -338 -125 0
124 338 -128 0
-124 338 128 0
-124 -338 125 0
125 -339 -126 0
125 339 -127 0
-125 339 127 0
-125 -339 126 0
126 340 -346 0
126 -340 -347 0
-126 -340 347 0
-126 340 346 0
127 340 -344 0
127 -340 -345 0
-127 -340 345 0
-127 340 344 0
128 -339 -129 0
128 339 -340 -341 0
-128 -339 129 0
-128 339 341 0
-128 339 340 0
129 340 -342 0
129 -340 -343 0
-129 -340 343 0
-129 340 342 0
-130 28 131 165 0
-130 131 145 165 0
130 -165 0
130 -131 0
130 -28 -145 0
-131 68 140 0
-131 132 140 0
-131 -42 140 0
131 -140 0
131 42 -68 -132 0
132 -33 -41 -133 -135 0
-132 135 0
-132 33 0
-132 133 0
-132 41 0
133 -315 -316 -317 -134 0
-133 134 0
-133 315 0
-133 317 0
-133 316 0
134 -313 -314 0
-134 313 0
-134 314 0
135 -136 -138 0
-135 136 0
-135 138 0
136 -30 -137 0
-136 30 0
-136 137 0
137 -36 -39 0
-137 36 0
-137 39 0
138 -331 -332 -336 -139 0
-138 139 0
-138 331 0
-138 336 0
-138 332 0
139 -333 -334 -335 0
-139 333 0
-139 334 0
-139 335 0
-140 132 0
-140 -97 141 0
-140 123 141 0
140 -132 -141 0
140 97 -123 -132 0
141 -337 -142 0
-141 337 0
-141 142 0
142 143 -144 0
-142 -143 0
-142 144 0
143 -338 -103 0
-143 338 0
-143 103 0
144 -338 -128 0
-144 338 0
-144 128 0
-145 337 160 0
-145 -337 146 0
-145 336 337 0
145 -337 -146 0
145 -336 337 -160 0
-146 -336 147 0
-146 336 153 0
146 -336 -147 0
146 336 -153 0
147 338 -148 0
147 -338 -150 0
-147 -338 150 0
-147 338 148 0
148 -339 -149 0
148 339 13 -66 0
-148 339 -13 0
-148 -339 149 0
-148 339 66 0
149 340 -359 10 0
149 -340 -360 10 0
-149 -10 0
-149 -340 360 0
-149 340 359 0
-150 339 -8 0
-150 -339 151 0
-150 339 63 0
150 -339 -151 0
150 339 8 -63 0
151 -340 -152 0
151 331 340 -363 0
-151 340 363 0
-151 -340 152 0
-151 -331 340 0
152 332 -364 0
-152 -332 0
-152 364 0
-153 338 156 0
-153 -338 154 0
153 -338 -154 0
153 338 -156 0
154 -339 -155 0
154 339 45 -71 0
-154 339 -45 0
-154 -339 155 0
-154 339 71 0
155 340 -347 26 0
155 -340 -348 26 0
-155 -26 0
-155 -340 348 0
-155 340 347 0
156 157 -158 0
-156 -157 0
-156 158 0
157 -339 -47 0
157 339 -50 0
-157 339 50 0
-157 -339 47 0
158 -339 -72 0
158 339 -159 0
-158 339 159 0
-158 -339 72 0
159 340 -341 0
159 -340 -342 0
-159 -340 342 0
-159 340 341 0
160 338 -161 0
160 -338 -163 0
-160 -338 163 0
-160 338 161 0
161 -339 -162 0
161 339 24 -59 0
-161 339 -24 0
-161 -339 162 0
-161 339 59 0
162 340 -351 21 0
162 -340 -352 21 0
-162 -21 0
-162 -340 352 0
-162 340 351 0
163 -339 -164 0
163 339 19 -56 0
-163 339 -19 0
-163 -339 164 0
-163 339 56 0
164 340 -355 15 0
164 -340 -356 15 0
-164 -15 0
-164 -340 356 0
-164 340 355 0
-165 166 178 201 217 0
165 -178 0
165 -201 0
165 -166 0
165 -217 0
166 -36 -167 -168 -171 0
-166 171 0
-166 36 0
-166 168 0
-166 167 0
167 -331 -332 -336 0
-167 331 0
-167 332 0
-167 336 0
168 -320 -169 -170 0
-168 320 0
-168 169 0
-168 170 0
169 -318 -319 -133 0
-169 318 0
-169 319 0
-169 133 0
170 -30 -33 0
-170 30 0
-170 33 0
171 -39 -139 -172 0
-171 39 0
-171 139 0
-171 172 0
-172 -337 173 0
-172 337 177 0
-172 337 -176 0
172 -337 -173 0
172 337 176 -177 0
173 174 -175 0
-173 -174 0
-173 175 0
174 -338 -23 0
174 338 -44 0
-174 338 44 0
-174 -338 23 0
175 -338 -58 0
175 338 -70 0
-175 338 70 0
-175 -338 58 0
176 -338 -49 0
-176 338 0
-176 49 0
177 -338 -73 0
-177 338 0
-177 73 0
-178 132 182 0
-178 179 182 192 0
178 -182 0
178 -132 -179 0
178 -132 -192 0
-179 -337 -180 0
-179 337 142 0
-179 -337 181 0
179 337 -142 0
179 -337 180 -181 0
180 -338 -84 0
180 338 -99 0
-180 338 99 0
-180 -338 84 0
181 -338 -113 0
181 338 -125 0
-181 338 125 0
-181 -338 113 0
182 28 -187 -190 0
182 183 -187 -190 0
-182 190 0
-182 187 0
-182 -28 -183 0
183 -185 -186 0
183 184 -186 0
-183 186 0
-183 -184 185 0
184 -336 -337 0
-184 336 0
-184 337 0
185 338 -80 0
185 -338 -93 0
-185 -338 93 0
-185 338 80 0
186 -337 -143 0
186 -336 -180 0
186 -336 -337 0
-186 337 180 0
-186 336 143 0
-186 336 337 0
187 -31 184 -188 0
187 -31 -188 -189 0
-187 31 0
-187 188 0
-187 -184 189 0
188 -337 -144 0
188 -336 -181 0
188 -336 -337 0
-188 337 181 0
-188 336 144 0
-188 336 337 0
189 338 -110 0
189 -338 -120 0
-189 -338 120 0
-189 338 110 0
190 -320 -321 -76 -191 0
-190 191 0
-190 320 0
-190 76 0
-190 321 0
191 -322 -30 -35 -38 0
-191 38 0
-191 322 0
-191 35 0
-191 30 0
192 -337 -153 0
192 -337 193 -198 0
-192 337 0
-192 153 -193 0
-192 153 198 0
193 -132 -194 0
-193 132 0
-193 194 0
194 -337 -195 0
-194 337 0
-194 195 0
195 -338 -196 0
195 338 -197 0
-195 338 197 0
-195 -338 196 0
196 -339 -101 0
196 339 -104 0
-196 339 104 0
-196 -339 101 0
197 -309 -339 -340 -341 0
-197 341 0
-197 309 0
-197 340 0
-197 339 0
198 -338 -199 0
198 338 -200 0
-198 338 200 0
-198 -338 199 0
199 -339 -127 0
199 339 -129 0
-199 339 129 0
-199 -339 127 0
200 -339 -340 -341 0
-200 339 0
-200 340 0
-200 341 0
201 -132 -202 0
201 -132 -214 0
-201 132 0
-201 202 214 0
202 -203 205 0
202 -204 205 0
-202 -205 0
-202 203 204 0
-203 337 153 -195 0
-203 337 153 198 0
203 -337 0
203 -153 0
203 195 -198 0
-204 -43 124 0
-204 69 -98 0
-204 69 124 0
-204 -43 -98 0
204 43 -69 0
204 98 -124 0
205 109 160 -206 0
205 -79 160 -206 0
-205 206 0
-205 -160 0
-205 79 -109 0
206 -337 -17 207 0
206 -337 54 207 0
-206 337 0
-206 -207 0
-206 17 -54 0
207 208 -211 0
-207 -208 0
-207 211 0
208 -338 -209 0
208 338 -210 0
-208 338 210 0
-208 -338 209 0
209 -339 -82 0
209 339 -85 0
-209 339 85 0
-209 -339 82 0
210 -339 -86 0
210 339 -100 0
-210 339 100 0
-210 -339 86 0
211 -338 -212 0
211 338 -213 0
-211 338 213 0
-211 -338 212 0
212 -339 -112 0
212 339 -114 0
-212 339 114 0
-212 -339 112 0
213 -339 -115 0
213 339 -126 0
-213 339 126 0
-213 -339 115 0
-214 -337 216 0
-214 337 215 0
214 337 -215 0
214 -337 -216 0
215 -338 -156 0
-215 338 0
-215 156 0
216 338 -154 0
216 -338 -161 0
-216 -338 161 0
-216 338 154 0
-217 218 246 259 296 0
217 -296 0
217 -218 0
217 -246 0
217 -259 0
-218 219 -230 234 0
-218 219 233 234 0
218 -219 0
218 -234 0
218 230 -233 0
219 -28 224 -225 0
219 -28 -220 -225 0
-219 28 0
-219 225 0
-219 220 -224 0
220 -336 -337 221 0
220 -336 337 208 0
-220 336 0
-220 -337 -221 0
-220 337 -208 0
-221 -338 223 0
-221 338 222 0
221 338 -222 0
221 -338 -223 0
222 339 -81 0
222 -339 -95 0
-222 -339 95 0
-222 339 81 0
223 -339 -91 0
223 339 -94 0
-223 339 94 0
-223 -339 91 0
-224 336 194 0
224 -336 0
224 -194 0
-225 -336 226 0
-225 336 198 0
-225 336 337 0
225 -336 -226 0
225 336 -337 -198 0
-226 -337 227 0
-226 337 211 0
226 337 -211 0
226 -337 -227 0
227 -338 -228 0
227 338 -229 0
-227 338 229 0
-227 -338 228 0
228 -339 -119 0
228 339 -121 0
-228 339 121 0
-228 -339 119 0
229 339 -111 0
229 -339 -122 0
-229 -339 122 0
-229 339 111 0
230 -31 -137 -170 -231 0
-230 231 0
-230 31 0
-230 170 0
-230 137 0
231 -337 -338 -157 -232 0
-231 232 0
-231 337 0
-231 157 0
-231 338 0
232 -40 -138 0
-232 40 0
-232 138 0
233 -337 -338 -132 -158 0
-233 158 0
-233 337 0
-233 132 0
-233 338 0
-234 236 241 0
-234 132 236 0
-234 -132 -235 241 0
234 -132 -241 0
234 132 -236 0
234 235 -236 0
235 -337 -176 0
-235 337 0
-235 176 0
236 -337 -237 -238 -239 0
-236 239 0
-236 337 0
-236 238 0
-236 237 0
237 -325 -326 -327 0
-237 325 0
-237 326 0
-237 327 0
238 -323 -31 -33 0
-238 323 0
-238 31 0
-238 33 0
239 -328 -177 -232 -240 0
-239 240 0
-239 328 0
-239 232 0
-239 177 0
240 -324 -36 0
-240 324 0
-240 36 0
241 242 -244 0
-241 -242 0
-241 244 0
242 -337 -243 0
-242 337 0
-242 243 0
243 -338 -197 0
-243 338 0
-243 197 0
244 -337 -245 0
-244 337 0
-244 245 0
245 -338 -339 -340 -341 0
-245 341 0
-245 338 0
-245 340 0
-245 339 0
-246 247 255 0
-246 247 256 0
-246 247 258 0
246 -247 0
246 -255 -256 -258 0
247 -168 -248 -252 0
247 -168 250 -252 0
-247 252 0
-247 168 0
-247 248 -250 0
248 -336 -337 249 0
248 -336 337 174 0
-248 336 0
-248 -337 -249 0
-248 337 -174 0
-249 338 18 0
-249 -338 12 0
249 -338 -12 0
249 338 -18 0
250 -324 -336 -251 0
250 -324 -235 -251 0
-250 251 0
-250 324 0
-250 336 235 0
251 -34 -40 -238 0
-251 34 0
-251 40 0
-251 238 0
252 -34 184 -254 0
252 -34 -253 -254 0
-252 34 0
-252 254 0
-252 -184 253 0
253 338 -55 0
253 -338 -65 0
-253 -338 65 0
-253 338 55 0
-254 337 175 0
-254 336 177 0
-254 336 337 0
254 -336 -175 0
254 -337 -177 0
254 -336 -337 0
-255 336 215 0
-255 336 337 0
255 -336 0
255 -337 -215 0
256 -169 184 -191 0
256 -169 -191 -257 0
-256 169 0
-256 191 0
-256 -184 257 0
257 -338 -148 0
257 338 -163 0
-257 338 163 0
-257 -338 148 0
258 -320 -321 -216 0
258 -320 -321 -337 0
-258 320 0
-258 321 0
-258 337 216 0
259 336 -28 -290 0
259 -336 -28 -260 0
-259 28 0
-259 336 290 0
-259 -336 260 0
-260 261 -271 0
-260 261 284 0
260 -261 0
260 271 -284 0
-261 337 -88 0
-261 -337 262 0
-261 337 116 0
261 -337 -262 0
261 337 88 -116 0
-262 263 267 0
-262 -339 263 0
262 -263 0
262 339 -267 0
263 338 -339 -265 0
263 338 339 -264 0
-263 -338 0
-263 -339 265 0
-263 339 264 0
264 340 -152 0
264 333 -340 -365 0
-264 340 152 0
-264 -340 365 0
-264 -333 -340 0
265 340 -266 0
265 335 -340 -367 0
-265 340 266 0
-265 -340 367 0
-265 -335 -340 0
266 334 -366 0
-266 -334 0
-266 366 0
267 337 268 -270 0
267 268 269 -270 0
-267 270 0
-267 -268 0
-267 -337 -269 0
268 -336 340 -368 0
-268 336 0
-268 -340 0
-268 368 0
269 -340 -369 0
-269 340 0
-269 369 0
270 -338 -340 -369 0
270 -338 340 -368 0
-270 338 0
-270 -340 369 0
-270 340 368 0
271 -338 272 -279 0
271 338 277 -279 0
-271 279 0
-271 -338 -272 0
-271 338 -277 0
-272 -340 265 273 0
-272 265 273 276 0
272 -273 0
272 -265 0
272 340 -276 0
-273 -340 264 275 0
-273 340 264 274 0
273 -264 0
273 -340 -275 0
273 340 -274 0
274 335 -367 0
-274 -335 0
-274 367 0
275 336 -368 0
-275 -336 0
-275 368 0
276 337 -369 0
-276 -337 0
-276 369 0
-277 -89 150 278 0
-277 117 150 278 0
277 -278 0
277 -150 0
277 89 -117 0
-278 -7 228 0
-278 62 -223 0
-278 62 228 0
-278 -7 -223 0
278 7 -62 0
278 223 -228 0
279 -339 273 -281 0
279 339 280 -281 0
-279 281 0
-279 -339 -273 0
-279 339 -280 0
-280 -90 151 0
-280 118 151 0
280 -151 0
280 90 -118 0
281 -337 339 282 0
281 -337 267 282 0
-281 337 0
-281 -282 0
-281 -339 -267 0
282 340 -283 0
282 334 -340 -366 0
-282 340 283 0
-282 -340 366 0
-282 -334 -340 0
283 333 -365 0
-283 -333 0
-283 365 0
-284 61 257 285 0
-284 -6 257 285 0
284 -285 0
284 -257 0
284 6 -61 0
-285 -286 288 289 0
-285 287 288 289 0
285 -289 0
285 -288 0
285 286 -287 0
286 338 -209 0
286 -338 -222 0
-286 -338 222 0
-286 338 209 0
287 338 -212 0
287 -338 -229 0
-287 -338 229 0
-287 338 212 0
-288 -185 253 0
-288 189 -249 0
-288 189 253 0
-288 -185 -249 0
288 185 -189 0
288 249 -253 0
-289 337 147 227 0
-289 337 147 -221 0
289 -337 0
289 -147 0
289 221 -227 0
-290 214 291 294 0
-290 214 291 -292 0
290 -214 0
290 -291 0
290 292 -294 0
-291 172 179 202 0
291 -172 0
291 -179 0
291 -202 0
292 337 -243 0
292 -337 -293 0
-292 -337 293 0
-292 337 243 0
293 338 -196 0
293 -338 -210 0
-293 -338 210 0
-293 338 196 0
294 337 -245 0
294 -337 -295 0
-294 -337 295 0
-294 337 245 0
295 338 -199 0
295 -338 -213 0
-295 -338 213 0
-295 338 199 0
-296 297 -308 0
-296 132 297 0
-296 294 297 0
296 -297 0
296 -132 -294 308 0
297 299 -302 0
297 -336 298 -302 0
-297 302 0
-297 -298 -299 0
-297 336 -299 0
298 -337 -286 0
298 337 -293 0
-298 337 293 0
-298 -337 286 0
299 -336 -133 -300 0
299 -133 -242 -300 0
-299 300 0
-299 133 0
-299 336 242 0
300 -335 -33 -136 -301 0
-300 301 0
-300 335 0
-300 136 0
-300 33 0
301 -37 -41 0
-301 37 0
-301 41 0
302 -337 -303 -305 0
302 -295 -303 -305 0
-302 305 0
-302 303 0
-302 337 295 0
303 -323 -336 -304 0
303 -323 -244 -304 0
-303 304 0
-303 323 0
-303 336 244 0
304 -313 -314 -335 -33 0
-304 33 0
-304 313 0
-304 335 0
-304 314 0
305 -324 -36 -306 -307 0
-305 307 0
-305 324 0
-305 306 0
-305 36 0
306 -315 -316 -317 0
-306 315 0
-306 316 0
-306 317 0
307 -39 184 -301 0
307 -39 -287 -301 0
-307 301 0
-307 39 0
-307 -184 287 0
308 -137 -138 -168 -292 0
-308 292 0
-308 137 0
-308 168 0
-308 138 0
-373 0
2 0

